c This Formular is generated by mcnf
c
c    horn? no 
c    forced? no 
c    mixed sat? no 
c    clause length = 3 
c
p cnf 20  91 
 5 -6 2 0
-18 -10 12 0
7 4 13 0
1 17 -6 0
19 -18 -14 0
6 -5 -3 0
-9 11 -5 0
-6 -12 18 0
2 -16 4 0
-1 17 3 0
-11 -9 8 0
-8 4 -11 0
7 10 -5 0
-9 -17 -15 0
16 -12 2 0
-1 -5 -12 0
-2 4 -3 0
20 16 5 0
15 12 -3 0
-9 -4 10 0
15 14 9 0
%
0

72 76 32 68 5 71 40 16 66 43 16 10 16 95 47 56 11 30 74 55
